
List of user-set options:

                                    Name   Value                used
                linear_scaling_on_demand = no                    yes
                           linear_solver = ma86                  yes
                   linear_system_scaling = mc19                  yes
                                max_iter = 500                   yes
                                 mu_init = 1e-06                 yes
                             output_file = ./tmp/ipopt_output_tmp.output  yes
                      print_user_options = yes                   yes
        required_infeasibility_reduction = 1                      no
                   warm_start_bound_push = 1e-20                 yes
                   warm_start_init_point = yes                   yes
              warm_start_mult_bound_push = 1e-20                 yes

******************************************************************************
This program contains Ipopt, a library for large-scale nonlinear optimization.
 Ipopt is released as open source code under the Eclipse Public License (EPL).
         For more information visit http://projects.coin-or.org/Ipopt
******************************************************************************

This is Ipopt version 3.12.10, running with linear solver ma86.

Number of nonzeros in equality constraint Jacobian...:   117344
Number of nonzeros in inequality constraint Jacobian.:       68
Number of nonzeros in Lagrangian Hessian.............:    47683

Total number of variables............................:    29960
                     variables with only lower bounds:    11291
                variables with lower and upper bounds:    15142
                     variables with only upper bounds:        0
Total number of equality constraints.................:    29906
Total number of inequality constraints...............:        4
        inequality constraints with only lower bounds:        4
   inequality constraints with lower and upper bounds:        0
        inequality constraints with only upper bounds:        0

iter    objective    inf_pr   inf_du lg(mu)  ||d||  lg(rg) alpha_du alpha_pr  ls
   0 -1.3214400e-01 6.30e-09 2.61e-03  -6.0 0.00e+00    -  0.00e+00 0.00e+00   0
   1 -1.3216262e-01 9.99e+00 6.27e+00  -6.0 1.79e+04    -  8.98e-03 6.48e-02h  1
   2 -1.3216367e-01 9.98e+00 6.01e+00  -6.0 1.40e+05    -  3.31e-03 7.67e-04f  3
   3 -1.3215311e-01 9.76e+00 8.05e+00  -6.0 1.00e+04    -  5.56e-03 2.68e-02h  1
   4 -1.3213287e-01 9.40e+00 1.09e+01  -6.0 1.08e+04    -  6.31e-03 3.69e-02f  1
   5 -1.3214042e-01 9.35e+00 9.09e+00  -6.0 4.70e+04    -  2.39e-02 5.49e-03f  3
   6 -1.3207671e-01 1.00e+01 1.29e+01  -6.0 1.19e+04    -  7.63e-03 4.52e-02h  1
   7 -1.3194732e-01 1.92e+01 1.57e+01  -6.0 1.59e+04    -  2.23e-02 5.75e-02h  1
   8 -1.3192935e-01 1.39e+01 3.06e+01  -6.0 4.62e+00  -4.0 6.60e-02 2.74e-01h  1
   9 -1.3192791e-01 1.33e+01 1.22e+01  -6.0 3.00e+00  -4.5 4.23e-01 4.65e-02h  1
iter    objective    inf_pr   inf_du lg(mu)  ||d||  lg(rg) alpha_du alpha_pr  ls
  10 -1.3197587e-01 1.06e+00 2.52e+01  -6.0 3.29e+00  -5.0 4.48e-01 9.20e-01h  1
  11 -1.3214813e-01 6.54e-02 3.64e+00  -6.0 1.64e+00  -5.4 8.73e-01 1.00e+00h  1
  12 -1.3224755e-01 5.25e-01 1.02e+01  -6.0 4.17e+00  -5.9 9.88e-01 7.95e-01h  1
  13 -1.3219713e-01 9.13e-01 6.53e+01  -6.0 5.54e+00  -6.4 5.80e-01 1.00e+00f  1
  14 -1.3230410e-01 1.06e+00 4.19e+01  -6.0 4.71e+01  -6.9 9.18e-02 7.55e-02h  1
  15 -1.3229237e-01 2.39e+00 2.13e+01  -6.0 3.26e+04    -  2.39e-02 1.18e-02h  1
  16 -1.3219160e-01 5.80e+00 2.60e+01  -6.0 6.77e+01  -7.3 1.15e-01 3.44e-01h  1
  17 -1.3221181e-01 5.66e+00 1.70e+01  -6.0 1.57e+02  -7.8 1.79e-01 3.75e-02h  1
  18 -1.3232874e-01 5.28e+00 2.47e+01  -6.0 6.06e+03    -  5.91e-02 4.87e-02h  1
  19 -1.3234892e-01 1.20e+01 4.82e+01  -6.0 5.37e+03    -  1.98e-01 1.70e-01h  1
iter    objective    inf_pr   inf_du lg(mu)  ||d||  lg(rg) alpha_du alpha_pr  ls
  20 -1.3231471e-01 6.41e+00 6.21e+01  -6.0 7.81e+01  -8.3 4.25e-01 4.64e-01h  1
  21 -1.3230107e-01 4.12e-01 3.27e+01  -6.0 8.12e+01  -7.9 1.00e+00 1.00e+00h  1
  22 -1.3223620e-01 2.55e-01 3.11e+02  -6.0 6.49e+01  -8.3 4.26e-01 1.00e+00h  1
  23 -1.3204765e-01 1.72e-01 8.11e+02  -6.0 1.06e+02  -8.8 1.30e-01 4.00e-01h  1
  24 -1.3199841e-01 5.66e-01 2.38e+02  -6.0 2.67e+02  -9.3 1.97e-01 6.69e-01h  1
  25 -1.3199472e-01 5.61e-01 2.25e+02  -6.0 5.89e+01  -4.4 3.95e-02 8.12e-03h  1
  26 -1.3200583e-01 4.63e-01 1.85e+02  -6.0 8.79e+00  -4.8 2.23e-01 1.75e-01h  1
  27 -1.3201216e-01 3.74e-01 1.51e+02  -6.0 7.02e+00  -4.4 9.61e-02 1.92e-01h  1
  28 -1.3200918e-01 3.07e-01 1.24e+02  -6.0 3.70e+00  -4.9 1.72e-01 1.80e-01h  1
  29 -1.3198756e-01 1.33e-01 5.92e+01  -6.0 6.17e-01  -4.5 2.63e-01 5.67e-01h  1
iter    objective    inf_pr   inf_du lg(mu)  ||d||  lg(rg) alpha_du alpha_pr  ls
  30 -1.3198768e-01 7.82e-02 3.05e+01  -6.0 1.32e+00  -4.9 1.00e+00 4.11e-01h  1
  31 -1.3198483e-01 1.93e-02 7.59e+00  -6.0 8.91e-01  -4.5 1.00e+00 7.54e-01h  1
  32 -1.3199376e-01 3.05e-04 3.45e+00  -6.0 1.70e+00  -5.0 5.08e-01 9.90e-01f  1
  33 -1.3199514e-01 1.54e-04 1.98e+00  -6.0 9.69e-01  -5.5 7.60e-01 4.35e-01f  1
  34 -1.3202922e-01 3.94e+00 1.09e+01  -6.0 1.05e+04    -  1.01e-01 5.09e-02f  1
  35 -1.3201162e-01 4.13e+00 1.64e+01  -6.0 5.97e+03    -  2.38e-01 1.84e-01h  1
  36 -1.3193782e-01 5.41e+00 2.11e+01  -6.0 4.43e+03    -  1.73e-01 1.65e-01h  1
  37 -1.3189031e-01 5.97e+00 2.18e+01  -6.0 3.59e+03    -  3.88e-01 1.44e-01h  1
  38 -1.3166796e-01 2.98e+01 5.19e+01  -6.0 3.04e+03    -  3.03e-01 5.25e-01h  1
  39 -1.3158747e-01 3.61e+01 4.30e+01  -6.0 4.28e+03    -  1.21e-01 2.35e-01h  1
iter    objective    inf_pr   inf_du lg(mu)  ||d||  lg(rg) alpha_du alpha_pr  ls
  40 -1.3155534e-01 5.97e+01 3.12e+01  -6.0 5.02e+03    -  4.61e-01 3.35e-01h  1
  41 -1.3145464e-01 3.63e+01 2.35e+03  -6.0 8.51e+02    -  3.61e-02 4.06e-01h  1
  42 -1.3142653e-01 4.32e-01 6.41e+02  -6.0 1.90e+02  -5.9 2.77e-03 1.00e+00h  1
  43 -1.3142359e-01 5.06e-04 2.08e+01  -6.0 6.13e+00  -5.5 9.11e-01 1.00e+00h  1
  44 -1.3141706e-01 2.95e-04 1.54e-03  -6.0 4.98e-01  -6.0 1.00e+00 1.00e+00h  1
  45 -1.3140639e-01 1.21e-03 1.00e-02  -6.0 9.15e-01  -6.5 1.00e+00 1.00e+00h  1
  46 -1.3139599e-01 1.42e-03 4.70e-02  -6.0 1.05e+00  -6.9 1.00e+00 1.00e+00h  1
  47 -1.3138925e-01 1.07e-04 1.00e-01  -6.0 1.83e+00  -7.4 1.00e+00 1.00e+00h  1
  48 -1.3137972e-01 3.62e-04 9.39e-02  -6.0 5.47e+00  -7.9 1.00e+00 1.00e+00h  1
  49 -1.3135807e-01 3.16e-03 3.20e-02  -6.0 1.64e+01  -8.4 1.00e+00 1.00e+00h  1
iter    objective    inf_pr   inf_du lg(mu)  ||d||  lg(rg) alpha_du alpha_pr  ls
  50 -1.3131382e-01 2.80e-02 4.20e-02  -6.0 4.88e+01  -8.9 1.00e+00 1.00e+00h  1
  51 -1.3122798e-01 2.38e-01 1.22e-01  -6.0 1.42e+02  -9.3 1.00e+00 1.00e+00h  1
  52 -1.3119367e-01 5.62e-02 1.46e-02  -6.0 5.24e+01  -8.9 1.00e+00 1.00e+00h  1
  53 -1.3102777e-01 1.16e+00 5.48e+00  -6.0 3.92e+02  -9.4 3.82e-01 7.08e-01H  1
  54 -1.3107806e-01 3.30e-01 3.69e+01  -6.0 3.82e+02  -9.9 1.00e+00 7.64e-01H  1
  55 -1.3095791e-01 1.20e+00 5.00e+01  -6.0 7.96e+02  -9.4 3.34e-01 2.78e-01h  1
  56 -1.3084307e-01 1.50e+00 1.30e-01  -6.0 2.32e+02  -9.9 1.00e+00 1.00e+00h  1
  57 -1.3082157e-01 1.20e+00 2.33e+02  -6.0 5.64e+02    -  4.28e-01 3.18e-01h  1
  58 -1.3077056e-01 1.05e+00 1.12e+03  -6.0 4.37e+02    -  1.00e+00 6.43e-01h  1
  59 -1.3117888e-01 5.92e-01 1.43e+03  -6.0 4.12e+02    -  4.71e-01 9.06e-01h  1
iter    objective    inf_pr   inf_du lg(mu)  ||d||  lg(rg) alpha_du alpha_pr  ls
  60 -1.3100804e-01 3.41e-01 3.50e+04  -6.0 7.56e+01  -7.7 4.16e-02 4.82e-01h  1
  61 -1.3070432e-01 7.09e-01 1.36e+04  -6.0 2.19e+02    -  3.77e-01 6.12e-01h  1
  62 -1.3076298e-01 6.04e-01 9.14e+03  -6.0 1.54e+02    -  5.20e-01 3.26e-01h  2
  63 -1.3064645e-01 3.21e-01 3.46e+00  -6.0 4.54e+01  -8.2 6.84e-01 1.00e+00h  1
  64 -1.3057829e-01 1.33e-02 2.33e+00  -6.0 2.23e+01  -8.6 5.98e-01 1.00e+00h  1
  65 -1.3058670e-01 4.03e-03 3.65e-02  -6.0 1.94e+01  -9.1 1.00e+00 1.00e+00h  1
  66 -1.3058252e-01 3.88e-04 4.22e-03  -6.0 9.95e+00  -9.6 1.00e+00 1.00e+00h  1
  67 -1.3058305e-01 3.85e-03 1.46e-03  -6.0 1.50e+01 -10.1 1.00e+00 1.00e+00h  1
  68 -1.3058360e-01 2.91e-01 1.22e+00  -6.0 1.61e+02 -10.5 1.00e+00 5.00e-01h  2
  69 -1.3058375e-01 5.42e-02 1.50e-04  -6.0 1.81e+01  -9.2 1.00e+00 1.00e+00h  1
iter    objective    inf_pr   inf_du lg(mu)  ||d||  lg(rg) alpha_du alpha_pr  ls
  70 -1.3058409e-01 6.41e-02 7.79e-04  -6.0 4.11e+01  -9.7 1.00e+00 1.00e+00h  1
  71 -1.3058451e-01 1.30e-01 1.61e-02  -6.0 4.96e+01    -  1.00e+00 1.00e+00h  1
  72 -1.3058445e-01 2.01e-03 1.97e-05  -6.0 6.62e+00    -  1.00e+00 1.00e+00h  1
  73 -1.3058445e-01 4.58e-07 4.50e-09  -6.0 9.62e-02    -  1.00e+00 1.00e+00h  1
  74 -1.3145698e-01 8.91e-01 1.30e+01  -9.0 2.17e+03    -  1.43e-01 1.78e-01f  1
  75 -1.3165136e-01 9.92e-01 3.00e+01  -9.0 1.95e+03    -  2.81e-01 6.55e-02h  1
  76 -1.3218835e-01 5.62e+00 4.72e+01  -9.0 2.25e+03    -  3.59e-02 2.47e-01h  1
  77 -1.3229961e-01 1.08e+01 4.64e+01  -9.0 1.08e+04    -  5.26e-02 5.26e-02h  1
  78 -1.3234174e-01 1.09e+01 4.77e+01  -9.0 5.54e+03    -  7.16e-02 2.37e-02h  1
  79 -1.3257156e-01 4.12e+01 4.12e+01  -9.0 1.41e+04    -  3.04e-02 9.41e-02h  1
iter    objective    inf_pr   inf_du lg(mu)  ||d||  lg(rg) alpha_du alpha_pr  ls
  80 -1.3263784e-01 3.88e+01 3.62e+01  -9.0 1.13e+03    -  8.19e-03 5.99e-02h  1
  81 -1.3289259e-01 2.91e+01 2.24e+01  -9.0 9.90e+02    -  1.48e-01 2.54e-01h  1
  82 -1.3293418e-01 2.74e+01 2.40e+01  -9.0 8.47e+02    -  2.60e-01 5.70e-02h  1
  83 -1.3315241e-01 1.90e+01 1.42e+01  -9.0 1.02e+03    -  7.18e-02 3.08e-01h  1
  84 -1.3320616e-01 1.74e+01 1.19e+01  -9.0 1.05e+03 -10.2 1.65e-01 8.46e-02h  1
  85 -1.3321802e-01 1.73e+01 1.15e+01  -9.0 8.85e+03  -9.7 2.78e-02 5.66e-03h  1
  86 -1.3340577e-01 1.04e+01 2.23e+01  -9.0 6.26e+02 -10.2 8.67e-02 4.00e-01h  1
  87 -1.3343041e-01 1.00e+01 2.47e+01  -9.0 3.20e+03    -  1.70e-02 3.57e-02h  1
  88 -1.3342915e-01 9.89e+00 5.41e+01  -9.0 4.70e+03    -  7.16e-03 1.42e-02h  1
  89 -1.3343660e-01 9.89e+00 5.71e+01  -9.0 7.96e+03  -8.0 4.17e-04 5.65e-04h  1
iter    objective    inf_pr   inf_du lg(mu)  ||d||  lg(rg) alpha_du alpha_pr  ls
  90 -1.3347466e-01 9.77e+00 5.00e+01  -9.0 2.11e+04    -  1.12e-02 1.20e-02h  1
  91 -1.3347289e-01 9.72e+00 6.73e+01  -9.0 3.97e+03    -  2.13e-02 5.44e-03h  1
  92 -1.3347843e-01 9.66e+00 5.52e+01  -9.0 1.29e+04    -  6.20e-03 5.42e-03h  1
  93 -1.3347891e-01 9.66e+00 4.92e+01  -9.0 3.18e+03    -  1.95e-03 7.47e-04h  1
  94 -1.3351190e-01 9.04e+00 3.16e+02  -9.0 3.05e+03    -  8.80e-04 6.42e-02h  1
  95 -1.3351235e-01 9.01e+00 3.05e+02  -9.0 2.52e+03    -  1.51e-02 3.29e-03h  1
  96 -1.3353047e-01 8.96e+00 3.10e+02  -9.0 6.05e+02  -7.6 7.80e-03 5.53e-03h  1
  97 -1.3354122e-01 8.71e+00 3.04e+02  -9.0 3.77e+02  -8.0 3.13e-02 2.76e-02h  1
  98 -1.3358784e-01 7.98e+00 3.73e+02  -9.0 7.38e+03    -  2.43e-01 8.49e-02h  1
  99 -1.3359110e-01 7.91e+00 3.61e+02  -9.0 6.59e+03    -  3.02e-01 7.77e-03h  1
iter    objective    inf_pr   inf_du lg(mu)  ||d||  lg(rg) alpha_du alpha_pr  ls
 100 -1.3369477e-01 5.82e+00 2.54e+02  -9.0 1.72e+03    -  3.61e-01 2.69e-01h  1
 101 -1.3370105e-01 5.73e+00 2.48e+02  -9.0 1.99e+03    -  3.11e-02 1.55e-02h  1
 102 -1.3374527e-01 4.97e+00 2.19e+02  -9.0 1.71e+03    -  9.00e-02 1.36e-01h  1
 103 -1.3377169e-01 4.54e+00 1.95e+02  -9.0 1.33e+03    -  1.61e-01 9.04e-02h  1
 104 -1.3382239e-01 3.82e+00 1.60e+02  -9.0 1.21e+03    -  2.60e-01 1.75e-01h  1
 105 -1.3382738e-01 3.76e+00 1.74e+02  -9.0 1.16e+03    -  2.43e-01 1.77e-02h  1
 106 -1.3387212e-01 3.28e+00 1.47e+02  -9.0 1.19e+03    -  1.90e-01 1.63e-01h  1
 107 -1.3390392e-01 3.02e+00 1.38e+02  -9.0 1.35e+03    -  1.69e-01 1.16e-01h  1
 108 -1.3396024e-01 3.04e+00 7.36e+01  -9.0 9.85e+02    -  7.53e-02 2.34e-01h  1
 109 -1.3408222e-01 3.03e+01 4.42e+01  -9.0 5.11e+03    -  8.92e-02 2.45e-01h  1
iter    objective    inf_pr   inf_du lg(mu)  ||d||  lg(rg) alpha_du alpha_pr  ls
 110 -1.3413075e-01 2.65e+01 1.12e+02  -9.0 3.15e+03    -  1.64e-04 1.38e-01h  1
 111 -1.3416471e-01 2.31e+01 1.89e+02  -9.0 9.60e+02    -  1.64e-05 1.37e-01h  1
 112 -1.3421676e-01 1.85e+01 2.00e+02  -9.0 8.92e+02    -  1.58e-01 2.18e-01h  1
 113 -1.3425965e-01 1.52e+01 5.94e+01  -9.0 7.92e+02    -  3.81e-01 1.83e-01h  1
 114 -1.3435118e-01 9.46e+00 3.37e+02  -9.0 7.40e+02    -  6.77e-01 3.91e-01h  1
 115 -1.3444097e-01 5.98e+00 2.95e+02  -9.0 6.93e+02    -  4.33e-01 3.70e-01h  1
 116 -1.3453735e-01 3.72e+00 1.50e+03  -9.0 6.62e+02    -  9.86e-01 3.89e-01h  1
 117 -1.3475708e-01 3.68e+00 1.42e+03  -9.0 6.36e+02    -  1.49e-01 8.73e-01h  1
 118 -1.3482621e-01 5.83e+00 2.45e+03  -9.0 1.61e+03    -  1.10e-01 3.30e-01h  1
 119 -1.3483511e-01 1.79e+01 8.18e+06  -9.0 1.24e+05    -  1.66e-05 2.54e-02h  1
iter    objective    inf_pr   inf_du lg(mu)  ||d||  lg(rg) alpha_du alpha_pr  ls
 120 -1.3490001e-01 1.61e+01 7.23e+06  -9.0 1.81e+03    -  7.00e-03 1.16e-01h  1
 121 -1.3496890e-01 1.06e+01 4.43e+06  -9.0 1.20e+03    -  7.68e-02 3.86e-01h  1
 122 -1.3486567e-01 1.95e+00 2.42e+02  -9.0 9.36e+02    -  2.52e-05 1.00e+00h  1
 123 -1.3489773e-01 2.91e+01 1.37e+02  -9.0 5.98e+03    -  1.84e-01 4.34e-01h  1
 124 -1.3501329e-01 5.79e+00 7.02e+01  -9.0 8.49e+03    -  8.19e-01 4.88e-01h  1
 125 -1.3501482e-01 1.97e+01 3.72e+01  -9.0 1.79e+04    -  1.46e-01 4.70e-01h  1
 126 -1.3501286e-01 1.96e+01 3.71e+01  -9.0 2.45e+02  -8.5 4.03e-03 2.18e-03h  8
 127 -1.3501275e-01 1.96e+01 3.71e+01  -9.0 1.22e+03  -9.0 3.22e-01 1.24e-04h 12
 128 -1.3501266e-01 1.96e+01 3.71e+01  -9.0 2.37e+02  -9.5 4.52e-01 1.68e-04h 13
 129 -1.3494394e-01 1.80e+01 3.40e+01  -9.0 4.90e+02  -9.9 8.46e-02 8.46e-02s 21
iter    objective    inf_pr   inf_du lg(mu)  ||d||  lg(rg) alpha_du alpha_pr  ls
 130 -1.3526739e-01 1.97e+01 3.40e+01  -9.0 2.42e+04    -  1.01e-01 0.00e+00S 21
 131 -1.3503078e-01 1.55e+01 2.55e+01  -9.0 6.89e+02 -10.4 4.34e-01 2.49e-01h  1
 132 -1.3502918e-01 1.54e+01 2.55e+01  -9.0 2.40e+03 -10.9 8.33e-04 2.28e-03h  1
 133 -1.3501304e-01 1.50e+01 2.47e+01  -9.0 5.07e+02 -10.5 2.75e-01 3.12e-02h  6
 134 -1.3501287e-01 1.49e+01 2.47e+01  -9.0 1.95e+03 -11.0 1.10e-01 2.89e-04h  6
 135 -1.3501284e-01 1.49e+01 2.47e+01  -9.0 4.23e+02 -10.5 3.98e-03 6.10e-05h 15
 136 -1.3495876e-01 1.39e+01 2.27e+01  -9.0 3.26e+03 -11.0 7.95e-02 7.95e-02s 19
 137 -1.3492599e-01 1.27e+01 2.08e+01  -9.0 3.82e+02 -10.6 8.25e-02 8.25e-02s 19
 138 -1.3476223e-01 9.37e+00 1.24e+01  -9.0 1.32e+03 -11.1 4.04e-01 4.04e-01s 19
 139 -1.3488478e-01 8.16e+00 6.90e+00  -9.0 4.78e+03 -11.5 4.44e-01 4.44e-01s 19
iter    objective    inf_pr   inf_du lg(mu)  ||d||  lg(rg) alpha_du alpha_pr  ls
 140 -1.3488460e-01 8.15e+00 6.88e+00  -9.0 7.75e+02    -  1.62e-03 1.62e-03s 19
 141 -1.3477590e-01 1.63e-01 6.88e+00  -9.0 7.33e+02    -  1.00e+00 0.00e+00S 19
 142 -1.3479793e-01 1.45e-01 1.91e-01  -9.0 3.93e+02    -  1.00e+00 1.00e+00h  1
 143 -1.3479658e-01 3.85e-02 3.12e-02  -9.0 1.61e+02    -  1.00e+00 1.00e+00h  1
 144 -1.3479649e-01 3.07e-04 2.48e-04  -9.0 1.11e+01    -  1.00e+00 1.00e+00h  1
 145 -1.3479649e-01 1.10e-08 8.87e-09  -9.0 6.09e-02    -  1.00e+00 1.00e+00h  1

Number of Iterations....: 145

                                   (scaled)                 (unscaled)
Objective...............:  -1.3479649236866198e-01   -1.3479649236866198e-01
Dual infeasibility......:   8.8717475950305244e-09    8.8717475950305244e-09
Constraint violation....:   3.0880910816769719e-10    1.0989740673039705e-08
Complementarity.........:   1.0000000041379283e-09    1.0000000041379283e-09
Overall NLP error.......:   8.8717475950305244e-09    1.0989740673039705e-08


Number of objective function evaluations             = 250
Number of objective gradient evaluations             = 146
Number of equality constraint evaluations            = 250
Number of inequality constraint evaluations          = 250
Number of equality constraint Jacobian evaluations   = 146
Number of inequality constraint Jacobian evaluations = 146
Number of Lagrangian Hessian evaluations             = 145
Total CPU secs in IPOPT (w/o function evaluations)   =    101.105
Total CPU secs in NLP function evaluations           =      2.457

EXIT: Optimal Solution Found.
